50
300 300
1 206 752
2 205 447
3 195 323
4 191 761
5 188 443
6 176 732
7 175 975
8 171 796
9 164 764
10 163 675
11 161 84
12 159 265
13 158 761
14 155 940
15 153 334
16 148 9
17 138 428
18 131 999
19 127 44
20 127 376
21 122 942
22 117 760
23 116 485
24 115 749
25 114 431
26 111 429
27 109 266
28 107 680
29 105 753
30 105 75
31 104 791
32 92 680
33 92 843
34 91 52
35 89 269
36 87 302
37 82 400
38 78 337
39 75 5
40 74 334
41 73 303
42 73 294
43 73 276
44 69 283
45 67 924
46 67 921
47 67 872
48 66 630
49 62 248
50 60 325
